136
680 832 967 1120 1288 1460 1598 1722 1742 1838 1934 1950 2030 2266 2832 2934 3476 3588 3656 3866 3898 3907 4054 4106 4298 4382 4506 4516 4614 4622 4684 4754 4786 4924 5116 5854 5926 6448 6632 6698 6806 6859 6998 7003 7014 7142 7158 7188 7210 7474 7944 8684 8774 8790 8832 9410 9506 9608 9714 9818 9822 9830 9850 9859 9962 9994 10003 10360 10912 10930 11906 12682 12758 12815 12950 12959 12966 13094 13110 13136 13868 14604 14722 14754 14774 14850 14922 15030 15038 15432 15458 15770 15802 15815 15914 15946 15959 16184 16230 16304 16455 16864 17114 17692 17890 17976 18240 18415 18456 18763 18902 18907 18918 19046 19062 19088 19400 19844 20004 20032 20130 20146 20238 20556 20666 20716 20946 21154 21346 21442 21722 21754 21788 21911 22264 22816 